500
1000
495
493
493
490
490
489
489
489
488
488
487
486
486
486
485
485
485
485
485
484
484
483
482
481
480
480
478
477
475
475
475
474
474
474
473
472
471
470
470
470
470
469
468
467
467
467
466
465
465
464
464
464
464
463
462
459
458
458
458
457
457
456
456
455
454
454
454
454
452
451
451
449
449
449
448
446
444
444
443
442
439
438
438
438
438
438
437
436
436
435
434
433
432
432
432
431
431
430
429
428
427
426
426
425
425
425
424
424
423
423
422
421
419
419
419
418
418
417
416
416
414
413
413
413
411
411
411
410
409
409
409
407
404
404
403
402
401
401
400
400
398
398
397
397
396
396
396
396
395
395
394
393
393
392
389
388
388
386
386
385
385
385
384
384
384
383
383
383
381
381
380
380
379
378
378
377
376
375
374
374
374
372
372
372
370
370
369
369
368
368
368
367
367
366
366
366
365
364
362
362
362
361
361
359
359
359
357
356
356
355
354
354
354
353
353
351
350
350
350
350
348
348
348
347
347
346
345
345
344
344
344
343
343
342
342
341
340
340
340
340
340
339
338
337
336
335
333
333
332
332
330
330
326
323
323
323
323
322
321
321
320
319
319
317
316
316
315
315
314
314
312
312
311
311
311
311
311
311
311
311
309
308
307
307
307
306
305
304
304
304
303
302
300
300
299
298
297
297
296
295
295
295
294
293
293
293
293
292
291
290
290
289
288
288
287
286
286
286
285
283
282
282
282
281
280
280
280
280
279
278
278
278
278
277
276
275
275
275
274
274
273
273
272
272
271
271
271
271
270
269
268
267
267
266
265
265
265
263
262
261
261
260
259
259
258
258
257
257
256
256
256
254
254
253
253
253
252
251
250
247
247
246
244
244
244
243
243
242
242
241
240
240
239
239
239
238
237
237
237
237
237
236
235
234
234
234
233
232
232
232
231
231
230
230
229
229
227
227
225
225
225
224
223
222
221
220
220
220
218
218
217
216
216
216
214
213
213
213
212
211
211
210
209
208
208
207
207
206
206
206
206
205
205
203
202
201
201
200
200
200
200
198
197
197
196
196
195
195
194
193
191
191
189
188
187
186
185
184
183
182
181
181
181
179
178
178
177
177
176
176
176
175
175
174
173
171
170
169
168
167
